306 5
10 10 10 10 10 

0 0 0 0 0 0 5 2 14 26 38 50 
0 0 0 0 0 0 5 3 5 6 11 12 
3 0 0 1 0 0 3 10 7 4 
4 0 0 7 0 0 2 9 8 
5 0 0 6 0 0 2 9 8 
9 0 0 4 0 0 2 9 8 
5 0 0 8 0 0 1 8 
1 0 0 6 0 0 1 13 
9 0 0 5 0 0 1 13 
8 0 0 3 0 0 1 13 
5 0 0 7 0 0 1 13 
10 0 0 3 0 0 1 13 
0 0 0 0 0 0 1 62 
0 0 0 0 0 0 5 15 17 18 19 24 
4 2 0 0 0 0 3 23 21 16 
1 4 0 0 0 0 1 22 
6 5 0 0 0 0 1 21 
6 4 0 0 0 0 1 20 
10 5 0 0 0 0 1 20 
8 7 0 0 0 0 1 25 
7 1 0 0 0 0 1 25 
1 4 0 0 0 0 1 25 
7 8 0 0 0 0 1 25 
8 10 0 0 0 0 1 25 
0 0 0 0 0 0 1 62 
0 0 0 0 0 0 3 27 28 31 
1 0 0 1 0 0 3 36 30 29 
4 0 0 4 0 0 3 35 32 29 
9 0 0 6 0 0 2 34 33 
6 0 0 8 0 0 2 35 34 
9 0 0 4 0 0 1 32 
6 0 0 6 0 0 1 33 
2 0 0 4 0 0 1 37 
6 0 0 5 0 0 1 37 
4 0 0 6 0 0 1 37 
10 0 0 6 0 0 1 37 
0 0 0 0 0 0 1 62 
0 0 0 0 0 0 2 39 40 
1 0 0 0 1 0 3 43 42 41 
6 0 0 0 9 0 2 44 41 
3 0 0 0 4 0 4 48 47 46 45 
9 0 0 0 4 0 4 48 47 46 45 
4 0 0 0 5 0 4 48 47 46 45 
1 0 0 0 5 0 1 45 
7 0 0 0 7 0 1 49 
10 0 0 0 5 0 1 49 
9 0 0 0 5 0 1 49 
2 0 0 0 5 0 1 49 
0 0 0 0 0 0 1 62 
0 0 0 0 0 0 4 51 52 59 60 
5 1 0 0 0 0 4 58 57 56 54 
6 7 0 0 0 0 3 57 55 53 
2 3 0 0 0 0 1 56 
9 5 0 0 0 0 1 55 
8 6 0 0 0 0 1 61 
1 6 0 0 0 0 1 61 
8 7 0 0 0 0 1 61 
4 6 0 0 0 0 1 61 
9 5 0 0 0 0 1 61 
8 4 0 0 0 0 1 61 
0 0 0 0 0 0 1 62 
0 0 0 0 0 0 5 63 75 87 99 111 
0 0 0 0 0 0 5 64 65 66 67 69 
2 0 1 0 0 0 3 73 70 68 
4 0 8 0 0 0 3 73 70 68 
9 0 5 0 0 0 3 73 70 68 
10 0 5 0 0 0 1 68 
2 0 3 0 0 0 2 72 71 
6 0 8 0 0 0 2 72 71 
6 0 4 0 0 0 1 71 
8 0 9 0 0 0 1 74 
1 0 2 0 0 0 1 74 
6 0 5 0 0 0 1 74 
0 0 0 0 0 0 1 123 
0 0 0 0 0 0 5 76 79 80 84 85 
10 0 0 0 1 0 3 83 78 77 
2 0 0 0 5 0 2 82 81 
8 0 0 0 9 0 1 81 
9 0 0 0 5 0 1 81 
8 0 0 0 5 0 1 81 
3 0 0 0 3 0 1 86 
7 0 0 0 5 0 1 86 
5 0 0 0 7 0 1 86 
1 0 0 0 6 0 1 86 
10 0 0 0 4 0 1 86 
0 0 0 0 0 0 1 123 
0 0 0 0 0 0 3 88 89 91 
10 0 0 1 0 0 3 96 92 90 
10 0 0 4 0 0 3 96 95 92 
3 0 0 6 0 0 4 97 95 94 93 
4 0 0 4 0 0 4 96 95 94 93 
6 0 0 8 0 0 2 94 93 
3 0 0 6 0 0 1 98 
9 0 0 5 0 0 1 98 
10 0 0 5 0 0 1 98 
6 0 0 5 0 0 1 98 
4 0 0 6 0 0 1 98 
0 0 0 0 0 0 1 123 
0 0 0 0 0 0 4 100 101 102 104 
5 0 0 0 4 0 3 106 105 103 
6 0 0 0 2 0 3 109 108 105 
1 0 0 0 4 0 3 108 106 105 
2 0 0 0 5 0 3 109 108 107 
8 0 0 0 3 0 2 108 105 
9 0 0 0 5 0 1 107 
6 0 0 0 7 0 1 107 
6 0 0 0 7 0 1 110 
1 0 0 0 3 0 1 110 
3 0 0 0 10 0 1 110 
0 0 0 0 0 0 1 123 
0 0 0 0 0 0 8 112 113 116 117 118 119 120 121 
10 0 0 0 0 1 1 114 
8 0 0 0 0 3 1 114 
2 0 0 0 0 5 1 115 
4 0 0 0 0 4 1 122 
1 0 0 0 0 8 1 122 
7 0 0 0 0 6 1 122 
8 0 0 0 0 4 1 122 
5 0 0 0 0 5 1 122 
2 0 0 0 0 5 1 122 
2 0 0 0 0 9 1 122 
0 0 0 0 0 0 1 123 
0 0 0 0 0 0 5 124 136 148 160 172 
0 0 0 0 0 0 5 125 126 128 129 130 
6 0 1 0 0 0 2 133 127 
7 0 5 0 0 0 1 127 
10 0 4 0 0 0 2 132 131 
2 0 2 0 0 0 1 134 
6 0 6 0 0 0 1 133 
5 0 6 0 0 0 1 131 
3 0 7 0 0 0 1 135 
10 0 8 0 0 0 1 135 
3 0 5 0 0 0 1 135 
3 0 6 0 0 0 1 135 
0 0 0 0 0 0 1 184 
0 0 0 0 0 0 5 137 138 143 145 146 
2 0 0 0 1 0 3 142 141 140 
5 0 0 0 7 0 1 139 
5 0 0 0 6 0 1 144 
10 0 0 0 7 0 1 144 
10 0 0 0 7 0 1 144 
1 0 0 0 3 0 1 144 
3 0 0 0 3 0 1 144 
4 0 0 0 6 0 1 147 
1 0 0 0 7 0 1 147 
6 0 0 0 3 0 1 147 
0 0 0 0 0 0 1 184 
0 0 0 0 0 0 3 149 151 152 
8 0 0 1 0 0 3 156 153 150 
9 0 0 6 0 0 4 158 157 155 154 
1 0 0 7 0 0 4 157 156 155 154 
1 0 0 7 0 0 3 156 155 154 
9 0 0 6 0 0 1 154 
5 0 0 4 0 0 1 159 
7 0 0 8 0 0 1 159 
5 0 0 3 0 0 1 159 
9 0 0 4 0 0 1 159 
3 0 0 4 0 0 1 159 
0 0 0 0 0 0 1 184 
0 0 0 0 0 0 5 161 163 164 169 170 
10 1 0 0 0 0 1 162 
1 6 0 0 0 0 3 168 167 166 
3 3 0 0 0 0 1 165 
8 7 0 0 0 0 1 165 
7 6 0 0 0 0 1 171 
7 7 0 0 0 0 1 171 
5 5 0 0 0 0 1 171 
10 4 0 0 0 0 1 171 
1 6 0 0 0 0 1 171 
3 5 0 0 0 0 1 171 
0 0 0 0 0 0 1 184 
0 0 0 0 0 0 4 173 174 175 182 
4 0 0 0 0 1 4 180 179 178 177 
10 0 0 0 0 8 3 181 180 176 
4 0 0 0 0 5 2 179 178 
7 0 0 0 0 8 1 177 
7 0 0 0 0 5 1 183 
7 0 0 0 0 3 1 183 
6 0 0 0 0 3 1 183 
3 0 0 0 0 6 1 183 
6 0 0 0 0 6 1 183 
10 0 0 0 0 5 1 183 
0 0 0 0 0 0 1 184 
0 0 0 0 0 0 5 185 197 209 221 233 
0 0 0 0 0 0 5 186 187 188 189 195 
9 0 0 0 0 1 3 194 192 191 
4 0 0 0 0 3 2 194 191 
1 0 0 0 0 9 2 194 190 
10 0 0 0 0 2 2 194 190 
1 0 0 0 0 4 1 193 
4 0 0 0 0 4 1 193 
9 0 0 0 0 7 1 193 
1 0 0 0 0 4 1 196 
5 0 0 0 0 8 1 196 
4 0 0 0 0 8 1 196 
0 0 0 0 0 0 1 245 
0 0 0 0 0 0 4 198 199 200 207 
8 0 0 1 0 0 4 206 203 202 201 
9 0 0 5 0 0 3 206 203 201 
8 0 0 3 0 0 3 206 202 201 
8 0 0 5 0 0 2 205 204 
10 0 0 10 0 0 1 205 
3 0 0 5 0 0 1 204 
4 0 0 7 0 0 1 208 
1 0 0 5 0 0 1 208 
5 0 0 7 0 0 1 208 
9 0 0 2 0 0 1 208 
0 0 0 0 0 0 1 245 
0 0 0 0 0 0 7 210 211 213 214 217 218 219 
1 0 0 1 0 0 2 216 215 
7 0 0 3 0 0 1 212 
6 0 0 5 0 0 1 215 
2 0 0 8 0 0 1 216 
7 0 0 5 0 0 1 215 
5 0 0 6 0 0 1 220 
2 0 0 8 0 0 1 220 
1 0 0 7 0 0 1 220 
6 0 0 2 0 0 1 220 
6 0 0 5 0 0 1 220 
0 0 0 0 0 0 1 245 
0 0 0 0 0 0 6 222 223 225 226 230 231 
10 0 2 0 0 0 2 227 224 
6 0 4 0 0 0 2 227 224 
2 0 9 0 0 0 1 228 
8 0 6 0 0 0 1 229 
5 0 5 0 0 0 1 227 
9 0 10 0 0 0 1 232 
3 0 3 0 0 0 1 232 
2 0 3 0 0 0 1 232 
3 0 5 0 0 0 1 232 
7 0 3 0 0 0 1 232 
0 0 0 0 0 0 1 245 
0 0 0 0 0 0 5 234 235 236 238 239 
6 0 0 0 0 1 3 243 240 237 
10 0 0 0 0 10 3 243 240 237 
4 0 0 0 0 1 3 243 242 240 
4 0 0 0 0 4 2 242 241 
8 0 0 0 0 8 1 241 
5 0 0 0 0 5 1 240 
9 0 0 0 0 8 1 244 
10 0 0 0 0 4 1 244 
7 0 0 0 0 6 1 244 
6 0 0 0 0 3 1 244 
0 0 0 0 0 0 1 245 
0 0 0 0 0 0 5 246 258 270 282 294 
0 0 0 0 0 0 4 247 248 249 252 
3 0 0 1 0 0 4 256 255 254 251 
10 0 0 6 0 0 4 256 255 253 250 
7 0 0 9 0 0 3 255 253 250 
1 0 0 4 0 0 1 254 
4 0 0 5 0 0 1 253 
4 0 0 4 0 0 1 253 
3 0 0 5 0 0 1 257 
2 0 0 4 0 0 1 257 
8 0 0 4 0 0 1 257 
9 0 0 8 0 0 1 257 
0 0 0 0 0 0 1 306 
0 0 0 0 0 0 3 259 260 264 
1 0 0 0 1 0 2 263 261 
7 0 0 0 6 0 2 262 261 
2 0 0 0 2 0 3 267 266 265 
7 0 0 0 8 0 2 266 265 
10 0 0 0 6 0 1 268 
2 0 0 0 2 0 1 265 
3 0 0 0 6 0 1 269 
8 0 0 0 4 0 1 269 
5 0 0 0 6 0 1 269 
10 0 0 0 9 0 1 269 
0 0 0 0 0 0 1 306 
0 0 0 0 0 0 5 271 272 274 279 280 
3 0 0 0 0 1 3 278 277 273 
6 0 0 0 0 4 3 277 276 275 
3 0 0 0 0 5 1 275 
10 0 0 0 0 7 1 276 
8 0 0 0 0 8 1 281 
8 0 0 0 0 5 1 281 
4 0 0 0 0 5 1 281 
2 0 0 0 0 5 1 281 
1 0 0 0 0 5 1 281 
8 0 0 0 0 5 1 281 
0 0 0 0 0 0 1 306 
0 0 0 0 0 0 6 283 284 286 287 291 292 
9 0 0 1 0 0 2 290 285 
8 0 0 6 0 0 2 289 288 
7 0 0 6 0 0 1 288 
9 0 0 5 0 0 1 288 
8 0 0 2 0 0 1 288 
10 0 0 7 0 0 1 293 
5 0 0 3 0 0 1 293 
1 0 0 9 0 0 1 293 
10 0 0 5 0 0 1 293 
9 0 0 6 0 0 1 293 
0 0 0 0 0 0 1 306 
0 0 0 0 0 0 4 295 296 297 299 
3 0 1 0 0 0 3 303 300 298 
8 0 6 0 0 0 4 304 303 302 300 
4 0 2 0 0 0 3 303 302 300 
3 0 4 0 0 0 3 304 302 301 
9 0 6 0 0 0 2 302 300 
9 0 4 0 0 0 1 301 
2 0 10 0 0 0 1 305 
5 0 6 0 0 0 1 305 
1 0 6 0 0 0 1 305 
6 0 5 0 0 0 1 305 
0 0 0 0 0 0 1 306 
0 0 0 0 0 0 0 
